c Random generated cnf formula, satisfiable: true
p cnf 10 50
-6 -2 -7 0
9 -5 -2 0
-3 -1 -8 0
-4 -9 -5 0
2 3 -1 0
-9 8 -10 0
4 7 -8 0
9 -2 -5 0
4 -1 -8 0
8 4 -10 0
-7 6 -4 0
6 3 7 0
6 8 2 0
5 2 10 0
-1 3 -10 0
3 8 -10 0
-10 3 4 0
6 5 -9 0
2 6 -4 0
-9 5 7 0
-4 5 -9 0
-5 6 -3 0
1 10 -6 0
-10 -4 -2 0
-9 -8 -1 0
-4 -2 -3 0
8 6 10 0
-4 -7 -3 0
-10 8 6 0
-10 1 -2 0
-6 -5 -3 0
1 10 -7 0
-1 8 -9 0
-2 -10 9 0
-9 6 10 0
-10 3 -4 0
9 5 10 0
-2 8 5 0
1 -6 -3 0
-9 -2 4 0
3 -8 10 0
3 -6 4 0
7 -1 -9 0
1 10 -3 0
-10 -6 4 0
-1 10 9 0
-7 3 9 0
-3 6 -9 0
-4 6 2 0
-6 8 4 0
